NAME 
ROWS
 N  OBJ
 L  R0      
 L  R1      
 E  R2      
 E  R3      
 E  R4      
 E  R5      
 E  R6      
 E  R7      
 E  R8      
 E  R9      
 E  R10     
 E  R11     
COLUMNS
    MARKER    'MARKER'                 'INTORG'
    I0(7)     OBJ       -108
    I0(7)     R0        37
    I0(7)     R1        29
    I0(7)     R2        11
    I0(7)     R3        19
    I0(7)     R4        -1
    I0(7)     R5        16
    I0(7)     R11       1
    I1(6)     OBJ       190
    I1(6)     R0        -127
    I1(6)     R1        65
    I1(6)     R2        13
    I1(6)     R3        15
    I1(6)     R5        7
    I1(6)     R11       1
    I2(7)     OBJ       111
    I2(7)     R0        -197
    I2(7)     R1        -137
    I2(7)     R2        1
    I2(7)     R3        7
    I2(7)     R4        13
    I2(7)     R6        1
    I2(7)     R11       1
    I3(7)     OBJ       131
    I3(7)     R0        -186
    I3(7)     R1        161
    I3(7)     R2        15
    I3(7)     R3        15
    I3(7)     R4        18
    I3(7)     R6        19
    I3(7)     R11       1
    I4(7)     OBJ       9
    I4(7)     R0        90
    I4(7)     R1        169
    I4(7)     R2        17
    I4(7)     R4        13
    I4(7)     R5        10
    I4(7)     R6        13
    I4(7)     R11       1
    MARKER    'MARKER'                 'INTEND'
    C5(8)     OBJ       -10
    C5(8)     R0        -9
    C5(8)     R2        11
    C5(8)     R3        15
    C5(8)     R6        6
    C5(8)     R7        1
    C5(8)     R8        3
    C5(8)     R9        5
    C5(8)     R10       15
    C6(7)     OBJ       4
    C6(7)     R1        2
    C6(7)     R2        10
    C6(7)     R5        19
    C6(7)     R6        11
    C6(7)     R8        13
    C6(7)     R9        3
    C6(7)     R10       16
    C7(9)     OBJ       9
    C7(9)     R0        -2
    C7(9)     R1        -4
    C7(9)     R2        11
    C7(9)     R3        17
    C7(9)     R4        16
    C7(9)     R5        16
    C7(9)     R6        6
    C7(9)     R7        14
    C7(9)     R9        18
    C8(10)    OBJ       -2
    C8(10)    R0        4
    C8(10)    R1        9
    C8(10)    R2        16
    C8(10)    R3        12
    C8(10)    R4        7
    C8(10)    R5        11
    C8(10)    R7        7
    C8(10)    R8        6
    C8(10)    R9        19
    C8(10)    R10       14
    C9(10)    OBJ       -2
    C9(10)    R0        7
    C9(10)    R1        6
    C9(10)    R2        4
    C9(10)    R3        5
    C9(10)    R4        13
    C9(10)    R5        9
    C9(10)    R6        7
    C9(10)    R7        11
    C9(10)    R9        -1
    C9(10)    R10       -1
    C10(1)    R2        1
    C11(1)    R3        1
    C12(1)    R4        1
    C13(1)    R5        1
    C14(1)    R6        1
    C15(1)    R7        1
    C16(1)    R8        1
    C17(1)    R9        1
    C18(1)    R10       1
    C19(1)    R11       1
RHS
    RHS1      R0        4.0000000000000568e-01
    RHS1      R1        29
    RHS1      R2        98
    RHS1      R3        80
    RHS1      R4        51
    RHS1      R5        63
    RHS1      R6        56
    RHS1      R7        85
    RHS1      R8        58
    RHS1      R9        80
    RHS1      R10       74
    RHS1      R11       1
BOUNDS
 UP BND1      I0(7)     2
 UP BND1      I1(6)     2
 UP BND1      I2(7)     2
 UP BND1      I3(7)     2
 UP BND1      I4(7)     2
ENDATA
